NAME MasterProb
ROWS
 N  OBJ
 L  R0      
 L  R1      
 L  R2      
 L  R3      
 L  R4      
 L  R5      
 L  R6      
 L  R7      
 L  R8      
 L  R9      
 L  R10     
 L  R11     
 L  R12     
 L  R13     
 L  R14     
 L  R15     
 L  R16     
COLUMNS
    MARKER    'MARKER'                 'INTORG'
    X[0,0]    OBJ       2.6520000000000005e+02
    X[0,0]    R0        2.3520000000000002e+02
    X[0,0]    R1        1
    X[0,0]    R16       1.0080000000000001e+02
    X[0,1]    OBJ       1768
    X[0,1]    R0        1568
    X[0,1]    R2        1
    X[0,1]    R16       672
    X[0,2]    OBJ       353.6
    X[0,2]    R0        313.6
    X[0,2]    R3        1
    X[0,2]    R16       134.4
    X[1,0]    OBJ       2.6520000000000005e+02
    X[1,0]    R0        2.3520000000000002e+02
    X[1,0]    R4        1
    X[1,0]    R16       1.0080000000000001e+02
    X[1,1]    OBJ       1768
    X[1,1]    R0        1568
    X[1,1]    R5        1
    X[1,1]    R16       672
    X[1,2]    OBJ       353.6
    X[1,2]    R0        313.6
    X[1,2]    R6        1
    X[1,2]    R16       134.4
    X[2,0]    OBJ       2.6520000000000005e+02
    X[2,0]    R0        2.3520000000000002e+02
    X[2,0]    R7        1
    X[2,0]    R16       1.0080000000000001e+02
    X[2,1]    OBJ       1768
    X[2,1]    R0        1568
    X[2,1]    R8        1
    X[2,1]    R16       672
    X[2,2]    OBJ       353.6
    X[2,2]    R0        313.6
    X[2,2]    R9        1
    X[2,2]    R16       134.4
    X[3,0]    OBJ       2.6520000000000005e+02
    X[3,0]    R0        2.3520000000000002e+02
    X[3,0]    R10       1
    X[3,0]    R16       1.0080000000000001e+02
    X[3,1]    OBJ       1768
    X[3,1]    R0        1568
    X[3,1]    R11       1
    X[3,1]    R16       672
    X[3,2]    OBJ       353.6
    X[3,2]    R0        313.6
    X[3,2]    R12       1
    X[3,2]    R16       134.4
    X[4,0]    OBJ       2.6520000000000005e+02
    X[4,0]    R0        2.3520000000000002e+02
    X[4,0]    R13       1
    X[4,0]    R16       1.0080000000000001e+02
    X[4,1]    OBJ       1768
    X[4,1]    R0        1568
    X[4,1]    R14       1
    X[4,1]    R16       672
    X[4,2]    OBJ       353.6
    X[4,2]    R0        313.6
    X[4,2]    R15       1
    X[4,2]    R16       134.4
    U[0]      OBJ       12714.8
    U[0]      R0        12714.8
    U[0]      R1        -300
    U[0]      R2        -114
    U[0]      R3        -100
    U[0]      R16       5449.2
    U[1]      OBJ       44055.2
    U[1]      R0        44055.2
    U[1]      R4        -300
    U[1]      R5        -396
    U[1]      R6        -100
    U[1]      R16       18880.8
    U[2]      OBJ       15728.3
    U[2]      R0        15728.3
    U[2]      R7        -300
    U[2]      R8        -141
    U[2]      R9        -100
    U[2]      R16       6740.7
    U[3]      OBJ       15026.9
    U[3]      R0        15026.9
    U[3]      R10       -300
    U[3]      R11       -133
    U[3]      R12       -100
    U[3]      R16       6.4400999999999995e+03
    U[4]      OBJ       27412
    U[4]      R0        27412
    U[4]      R13       -300
    U[4]      R14       -246
    U[4]      R15       -100
    U[4]      R16       11748
    MARKER    'MARKER'                 'INTEND'
    eta       OBJ       1
RHS
    RHS1      R0        500000
    RHS1      R16       20000
BOUNDS
 LI BND1      X[0,0]    0
 LI BND1      X[0,1]    0
 LI BND1      X[0,2]    0
 LI BND1      X[1,0]    0
 LI BND1      X[1,1]    0
 LI BND1      X[1,2]    0
 LI BND1      X[2,0]    0
 LI BND1      X[2,1]    0
 LI BND1      X[2,2]    0
 LI BND1      X[3,0]    0
 LI BND1      X[3,1]    0
 LI BND1      X[3,2]    0
 LI BND1      X[4,0]    0
 LI BND1      X[4,1]    0
 LI BND1      X[4,2]    0
 BV BND1      U[0]    
 BV BND1      U[1]    
 BV BND1      U[2]    
 BV BND1      U[3]    
 BV BND1      U[4]    
 LO BND1      eta       -10000000000
ENDATA
